
SystemName  elec
SystemLabel elec

# ---------------------------------------------------------------------------
# Lattice
# ---------------------------------------------------------------------------

LatticeConstant             1.00 Ang

%block LatticeVectors
    20.000000      0.000000      0.000000
     0.000000     20.021968      0.000000
     0.000000      0.000000      5.289999
%endblock LatticeVectors

# ---------------------------------------------------------------------------
# Species and Atoms
# ---------------------------------------------------------------------------

NumberOfSpecies        1
NumberOfAtoms          2

%block ChemicalSpeciesLabel
  1  79  Au
%endblock ChemicalSpeciesLabel

# ---------------------------------------------------------------------------
# Atomic Coordinates
# ---------------------------------------------------------------------------

AtomicCoordinatesFormat Ang

%block AtomicCoordinatesAndAtomicSpecies
3.08373	10.03502	1.32255	1
3.08373	10.05698	3.96754	1
%endblock AtomicCoordinatesAndAtomicSpecies


PAO.BasisSize    SZP
PAO.EnergyShift  0.005 Ry


# K-points

%block kgrid_Monkhorst_Pack
1   0   0   0.0
0   8   0   0.0
0   0   60  0.0
%endblock kgrid_Monkhorst_Pack

# General variables

ElectronicTemperature  100 K 
MeshCutoff           350. Ry
xc.functional         LDA           # Exchange-correlation functional
xc.authors            CA 
SpinPolarized .false.
SolutionMethod Diagon

==================================================
==================================================
# SCF variables

DM.MixSCF1   T
MaxSCFIterations      300           # Maximum number of SCF iter
DM.MixingWeight       0.03          # New DM amount for next SCF cycle
DM.Tolerance          1.d-4         # Tolerance in maximum difference
DM.UseSaveDM          true          # to use continuation files
DM.NumberPulay         5
Diag.DivideAndConquer  no
#Diag.ParallelOverK    yes

==================================================
==================================================
# MD variables

MD.FinalTimeStep 1
MD.TypeOfRun CG
MD.NumCGsteps     000
MD.UseSaveXV      .true.

==================================================
==================================================
# Output variables

WriteMullikenPop                1
WriteBands                      .false.
SaveRho                         .false.
SaveDeltaRho                    .false.
SaveHS                          .false.
SaveElectrostaticPotential      True 
SaveTotalPotential              no
WriteCoorXmol                   .true.
WriteMDXmol                     .true.
WriteMDhistory                  .false.
WriteEigenvalues                yes
==================================================
==================================================
